n_res = 4;
rc = [ 0, 0, 0, 0 ];
n_tasks = 30;
d = [ 5, 2, 6, 10, 7, 10, 9, 3, 8, 10, 1, 6, 6, 9, 9, 4, 4, 4, 3, 9, 4, 3, 6, 9, 3, 8, 6, 10, 8, 10 ];
rr = [| 0, 0, 0, 0, 0, 0, 0, 0, 0, 0, 0, 0, 0, 0, 0, 0, 0, 0, 0, 0, 0, 0, 0, 0, 0, 0, 0, 0, 0, 0
      | 0, 0, 0, 0, 0, 0, 0, 0, 0, 0, 0, 0, 0, 0, 0, 0, 0, 0, 0, 0, 0, 0, 0, 0, 0, 0, 0, 0, 0, 0
      | 0, 0, 0, 0, 0, 0, 0, 0, 0, 0, 0, 0, 0, 0, 0, 0, 0, 0, 0, 0, 0, 0, 0, 0, 0, 0, 0, 0, 0, 0
      | 0, 0, 0, 0, 0, 0, 0, 0, 0, 0, 0, 0, 0, 0, 0, 0, 0, 0, 0, 0, 0, 0, 0, 0, 0, 0, 0, 0, 0, 0 |];
suc = [ { 6, 9, 10 },
       { 7, 15, 18 },
       { 4, 5, 18 },
       { 11, 12, 13 },
       { 7, 16, 27 },
       { 8, 11, 21 },
       { 12, 13, 14 },
       { 15, 18, 24 },
       { 13, 16, 22 },
       { 17, 20, 26 },
       { 15, 16, 26 },
       { 17, 20 },
       { 19, 21, 23 },
       { 17, 22 },
       { 19, 27, 29 },
       { 24, 25 },
       { 30 },
       { 19, 25, 26 },
       { 28 },
       { 21, 22 },
       { 28 },
       { 23, 24 },
       { 25, 29 },
       { 28, 29 },
       { 30 },
       { 27 },
       { 30 },
       {  },
       {  },
       {  } ];
